problems/csplib-prob056/sonet-models/noch/O2/minion/model_6_1-s3ring12-solution000001.solution
language Essence 1.3

letting network be
        mset({1, 2, 3, 4, 5}, {1, 2, 3, 4, 5}, {1, 2, 3, 4, 5}, {1, 2, 3, 6, 9}, {1, 8, 10, 11, 12}, {3, 4, 6, 8, 13},
             {4, 5, 6, 7, 10})
$ Visualisation for network
$  1  2  3  4  5
$  1  2  3  4  5
$  1  2  3  4  5
$  1  2  3  6  9
$  1  8 10 11 12
$  3  4  6  8 13
$  4  5  6  7 10

